WARNING: for repeatability, setting FPU to use double precision
============================[ Problem Statistics ]=============================
|                                                                             |
|  Number of variables:            50                                         |
|  Number of clauses:             218                                         |
|  Parse time:                   0.00 s                                       |
|                                                                             |
============================[ Search Statistics ]==============================
| Conflicts |          ORIGINAL         |          LEARNT          | Progress |
|           |    Vars  Clauses Literals |    Limit  Clauses Lit/Cl |          |
===============================================================================
===============================================================================
restarts              : 1
conflicts             : 59             (196013 /sec)
decisions             : 73             (0.00 % random) (242525 /sec)
propagations          : 810            (2691030 /sec)
conflict literals     : 221            (16.60 % deleted)
Memory used           : 20.00 MB
CPU time              : 0.000301 s

UNSATISFIABLE
